NAME: Graph
TYPE: TSP
DIMENSION: 20
EDGE_WEIGHT_TYPE: EUC_2D
NODE_COORD_SECTION
1 1 43
2 8 23
3 9 37
4 10 31
5 12 30
6 13 49
7 15 77
8 28 76
9 36 56
10 42 88
11 45 96
12 61 85
13 68 99
14 70 16
15 71 88
16 79 80
17 89 75
18 92 43
19 92 97
20 94 76
EOF
